ID_groupA
10459
7408
7408
7408
3411
7027
10459
10459
10459
7408
10459
10459
7027
7408
7408
7408
7408
10459
7027
10459
10459
10459
7408
10459
10459
10459
7408
7408
7408
3411
7027
10459
7408
7408
7408
7408
7408
7408
7408
9369
9369
7408
7408
7408
7408
9369
7408
7408
7408
9369
9369
7408
7408
7408
7408
7408
7408
7408
7408
9369
7027
10459
10459
3411
3411
3411
10459
3411
3411
7027
10459
7027
7027
10459
7027
7027
7027
10459
10459
10459
10459
10459
10459
10459
10459
7408
10459
10459
10459
7408
7408
10459
10459
10459
7408
7408
10459
7408
9369
10459
10459
7408
10459
7408
3411
